30 60
29
6 18 14 26
2 12 18 14
10 7 11 7
4 23 26 33
4 1 2 24
7 7 11 14
11 4 19 56
6 5 13 0
2 7 11 0
6 11 20 33
10 19 20 14
11 5 19 0
4 2 13 5
7 5 7 39
4 2 17 5
7 12 19 44
7 13 7 26
3 6 7 44
6 10 0 50
9 16 10 44
1 4 6 21
4 10 6 50
6 24 0 0
9 9 21 5
2 1 0 24
8 5 10 21
3 5 7 21
7 25 0 25
5 21 6 0
